SPARKNaCl/why3-z3/sparknacl-hashing-sha2_common.adb_290_10_range_check4_1.smt2
;; produced by z3_gnatprove.drv ;;
(set-info :smt-lib-version 2.5)
(set-info :source |VC generated by SPARK 2014|)
(set-info :category industrial)
(set-info :status unknown)
;;; generated by SMT-LIB2 driver
;;; SMT-LIB2 driver: bit-vectors, common part
;;; SMT-LIB2: integer arithmetic
(define-fun __cdiv ((x Int) (y Int)) Int (ite (>= x 0) (div x y) (- (div (- x) y))))
(define-fun __cmod ((x Int) (y Int)) Int (ite (>= x 0) (mod x y) (- (mod (- x) y))))
(declare-datatypes ()
  ((int__ref (int__refqtmk (int__content Int)))))

(declare-datatypes ()
  ((bool__ref (bool__refqtmk (bool__content Bool)))))

;; "mod"
(define-fun mod1 ((x Int) (y Int)) Int
  (ite (<= 0 y) (mod x y) (- (mod (- x) y))))

(declare-datatypes ()
  ((t__ref (t__refqtmk (t__content (_ BitVec 8))))))

(declare-datatypes ()
  ((t__ref1 (t__refqtmk1 (t__content1 (_ BitVec 64))))))

(declare-sort byte 0)

;; "to_rep"
(declare-fun to_rep (byte) (_ BitVec 8))

;; "of_rep"
(declare-fun of_rep ((_ BitVec 8)) byte)

;; "inversion_axiom"
(assert
  (forall ((x byte)) (! (= (of_rep (to_rep x)) x) :pattern ((to_rep x)) )))

;; "range_axiom"
(assert true)

;; "coerce_axiom"
(assert
  (forall ((x (_ BitVec 8)))
    (! (= (to_rep (of_rep x)) x) :pattern ((to_rep (of_rep x))) )))

(declare-sort map1 0)

(declare-datatypes ()
  ((map__ref (map__refqtmk (map__content map1)))))

;; "has_bounds"
(declare-fun has_bounds (map1
  Int
  Int) Bool)

;; "get"
(declare-fun get (map1
  Int) byte)

;; "slide"
(declare-fun slide (map1
  Int
  Int) map1)

;; "slide_eq"
(assert
  (forall ((a map1) (first Int))
    (! (= (slide a first first) a) :pattern ((slide a first first)) )))

;; "slide_def"
(assert
  (forall ((a map1) (old_first Int) (new_first Int))
    (! (and
         (forall ((i Int))
           (! (= (get (slide a old_first new_first) i) (get
                                                         a
                                                         (- i (- new_first old_first)))) :pattern (
           (get
             (slide a old_first new_first)
             i)) ))
         (forall ((new_last Int))
           (! (=>
                (has_bounds a old_first (- new_last (- new_first old_first)))
                (has_bounds (slide a old_first new_first) new_first new_last)) :pattern (
           (has_bounds
             (slide a old_first new_first)
             new_first
             new_last)) ))) :pattern ((slide a old_first new_first)) )))

;; "slice"
(declare-fun slice (map1
  Int
  Int) map1)

;; "slice_eq"
(assert
  (forall ((a map1) (f Int) (l Int))
    (! (=> (has_bounds a f l) (= (slice a f l) a)) :pattern ((slice a f l)
    (has_bounds a f l)) )))

;; "slice_slice"
(assert
  (forall ((a map1) (f1 Int) (l1 Int) (f2 Int) (l2 Int))
    (! (=>
         (and (<= f1 f2) (<= l2 l1))
         (= (slice (slice a f1 l1) f2 l2) (slice a f2 l2))) :pattern (
    (slice
      (slice a f1 l1)
      f2
      l2)) )))

;; "slice_def"
(assert
  (forall ((a map1) (f Int) (l Int))
    (! (forall ((i Int))
         (! (=> (and (<= f i) (<= i l)) (= (get (slice a f l) i) (get a i))) :pattern (
         (get
           (slice a f l)
           i)) :pattern ((get a i)) )) :pattern ((slice a f l)) )))

;; "slice_has_bounds"
(assert
  (forall ((a map1) (f Int) (l Int))
    (! (has_bounds (slice a f l) f l) :pattern ((has_bounds
                                                  (slice a f l)
                                                  f
                                                  l)) )))

(declare-const iv map1)

(declare-sort tinteger_32B 0)

;; "tinteger_32B'int"
(declare-fun tinteger_32Bqtint (tinteger_32B) Int)

;; "tinteger_32B'axiom"
(assert
  (forall ((i tinteger_32B))
    (and
      (<= (- 2147483648) (tinteger_32Bqtint i))
      (<= (tinteger_32Bqtint i) 2147483647))))

;; "in_range"
(define-fun in_range ((x Int)) Bool
  (and (<= (- 2147483648) x) (<= x 2147483647)))

;; "to_rep"
(define-fun to_rep1 ((x tinteger_32B)) Int
  (tinteger_32Bqtint x))

;; "of_rep"
(declare-fun of_rep1 (Int) tinteger_32B)

;; "inversion_axiom"
(assert
  (forall ((x tinteger_32B))
    (! (= (of_rep1 (to_rep1 x)) x) :pattern ((to_rep1 x)) )))

;; "range_axiom"
(assert
  (forall ((x tinteger_32B))
    (! (in_range (to_rep1 x)) :pattern ((to_rep1 x)) )))

;; "coerce_axiom"
(assert
  (forall ((x Int))
    (! (=> (in_range x) (= (to_rep1 (of_rep1 x)) x)) :pattern ((to_rep1
                                                                 (of_rep1 x))) )))

;; "in_range"
(define-fun in_range1 ((x Int)) Bool
  (and (<= 0 x) (<= x 2147483647)))

(declare-datatypes ()
  ((t (tqtmk (rec__first tinteger_32B)(rec__last tinteger_32B)))))

;; "mk"
(declare-fun mk (Int
  Int) t)

;; "mk_def"
(assert
  (forall ((f Int) (l Int))
    (! (=>
         (in_range f)
         (=>
           (in_range l)
           (and
             (= (to_rep1 (rec__first (mk f l))) f)
             (= (to_rep1 (rec__last (mk f l))) l)))) :pattern ((mk f l)) )))

;; "dynamic_property"
(define-fun dynamic_property ((range_first Int) (range_last Int) (low Int) (high Int)) Bool
  (and
    (in_range low)
    (and
      (in_range high)
      (=> (<= low high) (and (in_range1 low) (in_range1 high))))))

(declare-datatypes ()
  ((us_t (us_tqtmk (elts map1)(rt t)))))

;; "to_array"
(define-fun to_array ((a us_t)) map1
  (elts a))

;; "of_array"
(define-fun of_array ((a map1) (f Int) (l Int)) us_t
  (us_tqtmk a (mk f l)))

;; "first"
(define-fun first ((a us_t)) Int
  (to_rep1 (rec__first (rt a))))

;; "last"
(define-fun last ((a us_t)) Int
  (to_rep1 (rec__last (rt a))))

;; "length"
(define-fun length ((a us_t)) Int
  (ite (<= (first a) (last a)) (+ (- (last a) (first a)) 1) 0))

;; "well_formed"
(define-fun well_formed ((a us_t)) Bool
  (has_bounds
    (elts a)
    (to_rep1 (rec__first (rt a)))
    (to_rep1 (rec__last (rt a)))))

(declare-const m us_t)

;; "in_range"
(define-fun in_range2 ((x Int)) Bool
  (and (<= (- 2147483648) x) (<= x 2147483647)))

;; "dynamic_invariant"
(define-fun dynamic_invariant ((temp___expr_329 us_t) (temp___is_init_325 Bool) (temp___skip_constant_326 Bool) (temp___do_toplevel_327 Bool) (temp___do_typ_inv_328 Bool)) Bool
  (and
    (=>
      (not (= temp___skip_constant_326 true))
      (dynamic_property
        0
        2147483647
        (first temp___expr_329)
        (last temp___expr_329)))
    (well_formed temp___expr_329)))

;; "in_range"
(define-fun in_range3 ((x Int)) Bool
  (and (<= (- 9223372036854775808) x) (<= x 9223372036854775807)))

;; "in_range"
(define-fun in_range4 ((x Int)) Bool
  (and (<= 0 x) (<= x 127)))

;; "temp_____aggregate_def_729"
(declare-fun temp_____aggregate_def_729 ((_ BitVec 8)) map1)

(declare-const output map1)

(declare-const x map1)

(declare-const b Int)

(declare-const final_block_first Int)

(declare-const ml_msb (_ BitVec 8))

(declare-const ml_lsbs (_ BitVec 64))

;; "ml_lsbs'unused"
(define-fun ml_lsbsqtunused () t__ref1
  (t__refqtmk1 ml_lsbs))

;; "ml_msb'unused"
(define-fun ml_msbqtunused () t__ref
  (t__refqtmk ml_msb))

;; "final_block_first'unused"
(define-fun final_block_firstqtunused () int__ref
  (int__refqtmk final_block_first))

;; "b'unused"
(define-fun bqtunused () int__ref
  (int__refqtmk b))

;; "x'unused"
(define-fun xqtunused () map__ref
  (map__refqtmk x))

;; "Assume"
(assert (has_bounds output 0 63))

;; "Assume"
(assert (has_bounds iv 0 63))

;; "Assume"
(assert (dynamic_invariant m true false true true))

(declare-const h map1)

;; "h'unused"
(define-fun hqtunused () map__ref
  (map__refqtmk h))

;; "H"
(assert (= h iv))

;; "Assume"
(assert (has_bounds h 0 63))

;; "Assume"
(assert true)

;; "Assume"
(assert (has_bounds x 0 255))

;; "Assume"
(assert true)

;; "Assume"
(assert (in_range4 b))

;; "Assume"
(assert true)

;; "Assume"
(assert (in_range2 final_block_first))

;; "Assume"
(assert true)

;; "Assume"
(assert true)

;; "Assume"
(assert true)

;; "Assume"
(assert true)

(declare-const temp___733 map1)

;; "H"
(assert (has_bounds temp___733 0 255))

;; "H"
(assert
  (forall ((temp___732 Int))
    (! (=>
         (and (<= 0 temp___732) (<= temp___732 255))
         (= (to_rep (get temp___733 temp___732)) #x00)) :pattern ((get
                                                                    temp___733
                                                                    temp___732)) )))

;; "H"
(assert (= temp___733 (temp_____aggregate_def_729 #x00)))

;; "temp_____aggregate_def_729'result'unused"
(define-fun temp_____aggregate_def_729qtresultqtunused () map1
  temp___733)

(declare-const x1 map1)

;; "x'unused"
(define-fun xqtunused1 () map__ref
  (map__refqtmk x1))

;; "H"
(assert (= x1 temp___733))

;; "map__content'result'unused"
(define-fun map__contentqtresultqtunused () map1
  h)

(declare-const h1 map1)

;; "h'unused"
(define-fun hqtunused1 () map__ref
  (map__refqtmk h1))

;; "H"
(assert (has_bounds h1 0 63))

;; "H"
(assert true)

;; "H"
(assert true)

;; "o"
(define-fun o () Int
  (length m))

;; "length'result'unused"
(define-fun lengthqtresultqtunused () Int
  o)

;; "Ensures"
(assert (in_range3 o))

;; "range_check_'result'unused"
(define-fun range_check_qtresultqtunused () Int
  o)

;; "o"
(define-fun o1 () Int
  (mod1 o 128))

;; "mod_'result'unused"
(define-fun mod_qtresultqtunused () Int
  o1)

;; "Ensures"
(assert (in_range4 o1))

;; "range_check_'result'unused"
(define-fun range_check_qtresultqtunused1 () Int
  o1)

(declare-const b1 Int)

;; "b'unused"
(define-fun bqtunused1 () int__ref
  (int__refqtmk b1))

;; "H"
(assert (= b1 o1))

;; "int__content'result'unused"
(define-fun int__contentqtresultqtunused () Int
  b1)

;; "o"
(define-fun o2 () Bool
  (ite (< 0 b1) true false))

;; "infix >'result'unused"
(define-fun infix_gtqtresultqtunused () Bool
  o2)

(declare-const spark__branch Bool)

;; "spark__branch'unused"
(define-fun spark__branchqtunused () bool__ref
  (bool__refqtmk spark__branch))

;; "H"
(assert (= spark__branch o2))

;; "bool__content'result'unused"
(define-fun bool__contentqtresultqtunused () Bool
  spark__branch)

;; "H"
(assert (= spark__branch true))

;; "int__content'result'unused"
(define-fun int__contentqtresultqtunused1 () Int
  b1)

;; "o"
(define-fun o3 () Int
  (last m))

;; "last'result'unused"
(define-fun lastqtresultqtunused () Int
  o3)

;; "o"
(define-fun o4 () Int
  (- o3 b1))

;; "infix -'result'unused"
(define-fun infix_mnqtresultqtunused () Int
  o4)

;; "Ensures"
(assert (in_range o4))

;; "range_check_'result'unused"
(define-fun range_check_qtresultqtunused2 () Int
  o4)

;; "o"
(define-fun o5 () Int
  (+ o4 1))

;; "infix +'result'unused"
(define-fun infix_plqtresultqtunused () Int
  o5)

;; "Ensures"
(assert (in_range o5))

;; "range_check_'result'unused"
(define-fun range_check_qtresultqtunused3 () Int
  o5)

(declare-const final_block_first1 Int)

;; "final_block_first'unused"
(define-fun final_block_firstqtunused1 () int__ref
  (int__refqtmk final_block_first1))

;; "H"
(assert (= final_block_first1 o5))

;; "temp___740"
(define-fun temp___740 () Int
  (last m))

;; "last'result'unused"
(define-fun lastqtresultqtunused1 () Int
  temp___740)

;; "int__content'result'unused"
(define-fun int__contentqtresultqtunused2 () Int
  final_block_first1)

;; "Assert"
(assert
  (=>
    (<= final_block_first1 temp___740)
    (and
      (and
        (<= (first m) final_block_first1)
        (<= final_block_first1 (last m)))
      (and (<= (first m) temp___740) (<= temp___740 (last m))))))

;; "o"
(define-fun o6 () map1
  (to_array m))

;; "to_array'result'unused"
(define-fun to_arrayqtresultqtunused () map1
  o6)

;; "o"
(define-fun o7 () map1
  (slice o6 final_block_first1 temp___740))

;; "slice'result'unused"
(define-fun sliceqtresultqtunused () map1
  o7)

;; "temp___741"
(define-fun temp___741 () us_t
  (of_array o7 final_block_first1 temp___740))

;; "of_array'result'unused"
(define-fun of_arrayqtresultqtunused () us_t
  temp___741)

;; "o"
(define-fun o8 () Int
  final_block_first1)

;; "first'result'unused"
(define-fun firstqtresultqtunused () Int
  o8)

;; "o"
(define-fun o9 () map1
  o7)

;; "to_array'result'unused"
(define-fun to_arrayqtresultqtunused1 () map1
  o9)

;; "temp___742"
(define-fun temp___742 () map1
  (slide o9 o8 0))

;; "slide'result'unused"
(define-fun slideqtresultqtunused () map1
  temp___742)

;; "Assert"
(assert
  (ite (<= final_block_first1 temp___740)
    (and
      (<= 0 (- b1 1))
      (= (- temp___740 final_block_first1) (- (- b1 1) 0)))
    (< (- b1 1) 0)))

;; "int__content'result'unused"
(define-fun int__contentqtresultqtunused3 () Int
  b1)

;; "o"
(define-fun o10 () Int
  (- b1 1))

;; "infix -'result'unused"
(define-fun infix_mnqtresultqtunused1 () Int
  o10)

;; "temp___743"
(define-fun temp___743 () us_t
  (of_array temp___742 0 o10))

;; "of_array'result'unused"
(define-fun of_arrayqtresultqtunused1 () us_t
  temp___743)

;; "int__content'result'unused"
(define-fun int__contentqtresultqtunused4 () Int
  b1)

;; "temp___745"
(define-fun temp___745 () Int
  (- b1 1))

;; "infix -'result'unused"
(define-fun infix_mnqtresultqtunused2 () Int
  temp___745)

;; "H"
(assert (<= 0 temp___745))

;; Goal "def'vc"
;; File "sparknacl-hashing-sha2_common.ads", line 26, characters 0-0
(assert
  (not (<= temp___745 255)))

(check-sat)
